unsat
(:max-memory         18.43
 :memory             18.33
 :nlsat-arith-var    3
 :nlsat-atoms        7
 :nlsat-bool-var     1
 :nlsat-clauses      6
 :nlsat-conflicts    2
 :nlsat-propagations 7
 :nlsat-stages       3
 :num-allocs         50577
 :rlimit-count       1691
 :time               0.00
 :total-time         0.01)
